# Objective value = 16
tfe0,0 0
tfe0,1 0
tfe0,2 0
tfe0,3 1
tfe0,4 0
tfe0,5 0
tfe0,6 0
tfe0,7 0
tfe0,8 0
tfe0,9 0
tfe0,10 0
tfe0,11 0
tfe1,0 0
tfe1,1 0
tfe1,2 0
tfe1,3 1
tfe1,4 0
tfe1,5 0
tfe1,6 0
tfe1,7 0
tfe1,8 0
tfe1,9 0
tfe1,10 0
tfe1,11 0
prof0,0 0
prof0,1 0
prof0,2 0
prof0,3 1
prof0,4 0
prof0,5 0
prof0,6 0
prof0,7 0
prof0,8 0
prof0,9 0
prof0,10 0
prof0,11 0
prof1,0 0
prof1,1 0
prof1,2 0
prof1,3 1
prof1,4 0
prof1,5 0
prof1,6 0
prof1,7 0
prof1,8 0
prof1,9 0
prof1,10 0
prof1,11 0
prof2,0 0
prof2,1 0
prof2,2 0
prof2,3 1
prof2,4 0
prof2,5 0
prof2,6 0
prof2,7 0
prof2,8 0
prof2,9 0
prof2,10 0
prof2,11 0
prof3,0 0
prof3,1 0
prof3,2 0
prof3,3 1
prof3,4 0
prof3,5 0
prof3,6 0
prof3,7 0
prof3,8 0
prof3,9 0
prof3,10 0
prof3,11 0
